Maximize

x_0_1 + x_0_2 + x_0_3 + x_0_4 + x_0_5


Subject To

a0: x_0_1 - x_1_2 - x_1_3 - x_1_4 = 0
a1: x_0_2 + x_1_2 - x_2_3 - x_2_4 - x_2_5 = 0
a2: x_0_3 + x_1_3 + x_2_3 - x_3_4 - x_3_5 - x_3_6 = 0
a3: x_0_4 + x_1_4 + x_2_4 + x_3_4 - x_4_5 - x_4_6 - x_4_7 = 0
a4: x_0_5 + x_2_5 + x_3_5 + x_4_5 - x_5_6 - x_5_7 - x_5_8 - x_5_9 = 0
a5: x_3_6 + x_4_6 + x_5_6 - x_6_7 - x_6_8 - x_6_9 = 0
a6: x_4_7 + x_5_7 + x_6_7 - x_7_8 = 0
a7: x_5_8 + x_6_8 + x_7_8 - x_8_9 = 0
b0: x_0_1 = 1
b1: x_0_2 + x_1_2 = 1
b2: x_0_3 + x_1_3 + x_2_3 = 1
b3: x_0_4 + x_1_4 + x_2_4 + x_3_4 = 1
b4: x_0_5 + x_2_5 + x_3_5 + x_4_5 = 1
b5: x_3_6 + x_4_6 + x_5_6 = 1
b6: x_4_7 + x_5_7 + x_6_7 = 1
b7: x_5_8 + x_6_8 + x_7_8 = 1




Binary

x_0_1 x_0_2 x_0_3 x_0_4 x_0_5 x_1_2 x_1_3 x_1_4 x_2_3 x_2_4 x_2_5 x_3_4 x_3_5 x_3_6 x_4_5 x_4_6 x_4_7 x_5_6 x_5_7 x_5_8 x_5_9 x_6_7 x_6_8 x_6_9 x_7_8 x_8_9

 
End
